NAME : instances/clustered-diverse-tsp/instance-12.tsp
COMMENT : No Comment
TYPE : TSP
DIMENSION: 50
EDGE_WEIGHT_TYPE : EUC_2D
NODE_COORD_SECTION
1 648 1497 
2 175 792 
3 2076 702 
4 1981 584 
5 588 1504 
6 444 785 
7 2002 635 
8 773 909 
9 100 730 
10 780 1009 
11 37 890 
12 486 205 
13 477 302 
14 1914 48 
15 109 863 
16 1970 651 
17 1911 594 
18 452 669 
19 755 882 
20 1915 602 
21 204 865 
22 484 809 
23 840 74 
24 594 1466 
25 141 817 
26 86 711 
27 738 879 
28 39 764 
29 1978 717 
30 2023 605 
31 1911 -52 
32 1937 81 
33 848 236 
34 855 1028 
35 875 877 
36 111 877 
37 233 878 
38 842 254 
39 1877 -74 
40 1926 -22 
41 669 1569 
42 1926 652 
43 173 757 
44 106 735 
45 1944 689 
46 35 810 
47 1934 111 
48 778 890 
49 760 993 
50 517 733 
EOF
